61 53 49 
11 38 75 72 98 94 64 10 37 28 73 8 50 34 97 58 
19 71 56 16 39 3 46 13 70 
15 4 29 41 
74 
5 30 65 52 67 42 9 31 82 99 59 14 47 89 32 96 100 
88 45 95 51 22 
33 40 
7 85 20 
87 68 69 76 35 90 
24 77 93 63 
44 26 
17 
91 1 
48 83 79 6 54 
27 36 21 23 12 18 84 81 2 92 86 62 43 57 25 78 66 80 55 60 

